
c turning on binary mode checking

c parsing input formula with 28 variables and 1456 clauses

c finished parsing, read 1254 bytes from proof file

c detected empty clause; start verification via backward checking

c 282 of 1456 clauses in core                            

c 133 of 144 lemmas in core using 1563 resolution steps

c 0 RAT lemmas in core; 8 redundant literals in core lemmas

s VERIFIED

c verification time: 0.056 seconds
